96 104 31 93 161 125 199 155 0 49 168 148 185 37 65 7 51 137 119 179 80 33 129 174 26 23 164 87 178 12 180 78 146 40 83 136 171 68 106 183 157 151 15 62 153 14 72 38 90 53 76 42 70 187 122 121 92 3 154 43 59 52 123 176 4 117 61 34 29 143 1 99 191 50 118 36 195 18 47 140 135 144 116 91 177 54 112 86 25 162 130 147 94 150 55 20 181 46 27 11 114 132 105 103 182 81 163 113 24 19 141 9 8 101 115 2 82 39 5 58 149 63 84 17 188 142 95 85 159 173 64 186 13 67 32 165 44 98 77 30 56 71 134 160 75 79 193 156 133 45 145 124 108 126 170 60 111 73 189 120 100 194 197 6 131 66 74 158 35 128 107 198 175 196 190 28 127 57 102 110 192 21 184 172 41 22 109 167 10 88 152 69 48 169 97 138 139 89 16 166